(set-logic QF_S)
(set-info :source |
  James Brotherston, Carsten Fuhs, Nikos Gorogiannis, and Juan Navarro Pérez. 
  A decision procedure for satisfiability in separation logic with inductive 
  predicates. To appear at CSL-LICS, 2014. 
  https://github.com/ngorogiannis/cyclist/releases/tag/CSL-LICS14
|)
(set-info :smt-lib-version 2.0)
(set-info :category "crafted")
(set-info :status unknown)
(set-info :version 2014-05-31)


